ampl_outputs/A-n12-k3-m2-b3_v2_ampl_.txt.out
Gurobi 12.0.1:   lim:time = 28800
  mip:bestbound = 1
Set parameter LogToConsole to value 1
  tech:outlev = 1
Set parameter InfUnbdInfo to value 1
Gurobi Optimizer version 12.0.1 build v12.0.1rc0 (win64 - Windows 11.0 (22631.2))

CPU model: Intel(R) Core(TM) i7-10700 CPU @ 2.90GHz, instruction set [SSE2|AVX|AVX2]
Thread count: 8 physical cores, 16 logical processors, using up to 16 threads

Non-default parameters:
TimeLimit  28800
InfUnbdInfo  1

Optimize a model with 394 rows, 1069 columns and 4670 nonzeros
Model fingerprint: 0x141f988b
Model has 9 quadratic objective terms
Model has 12 quadratic constraints
Model has 378 simple general constraints
  378 AND
Variable types: 19 continuous, 1050 integer (0 binary)
Coefficient statistics:
  Matrix range     [1e+00, 1e+05]
  QMatrix range    [1e+00, 2e+01]
  QLMatrix range   [1e+00, 2e+01]
  Objective range  [2e+01, 3e+02]
  QObjective range [1e+00, 2e+01]
  Bounds range     [1e+00, 1e+00]
  RHS range        [1e+00, 1e+05]
  QRHS range       [7e+01, 1e+02]
Presolve added 1012 rows and 0 columns
Presolve removed 0 rows and 90 columns
Presolve time: 0.04s
Presolved: 2038 rows, 1483 columns, 8674 nonzeros
Variable types: 15 continuous, 1468 integer (1468 binary)

Root relaxation: objective 5.408065e+02, 143 iterations, 0.01 seconds (0.01 work units)

    Nodes    |    Current Node    |     Objective Bounds      |     Work
 Expl Unexpl |  Obj  Depth IntInf | Incumbent    BestBd   Gap | It/Node Time

     0     0  540.80646    0    4          -  540.80646      -     -    0s
H    0     0                     842.3900000  540.80646  35.8%     -    0s
H    0     0                     830.4800000  540.80646  34.9%     -    0s
     0     0  558.17000    0    8  830.48000  558.17000  32.8%     -    0s
     0     0  558.17000    0    6  830.48000  558.17000  32.8%     -    0s
     0     0  558.17000    0    7  830.48000  558.17000  32.8%     -    0s
     0     0  558.17000    0    6  830.48000  558.17000  32.8%     -    0s
     0     0  558.17000    0    6  830.48000  558.17000  32.8%     -    0s
     0     0  558.17000    0    6  830.48000  558.17000  32.8%     -    0s
     0     0  558.17000    0    4  830.48000  558.17000  32.8%     -    0s
     0     0  558.17000    0    6  830.48000  558.17000  32.8%     -    0s
     0     0  558.17000    0    6  830.48000  558.17000  32.8%     -    0s
     0     0  558.17000    0    6  830.48000  558.17000  32.8%     -    0s
     0     0  558.17000    0    6  830.48000  558.17000  32.8%     -    0s
     0     2  558.17000    0    6  830.48000  558.17000  32.8%     -    0s

Cutting planes:
  Learned: 2
  Gomory: 1
  Cover: 1
  Implied bound: 3
  Inf proof: 2
  RLT: 5
  Relax-and-lift: 1

Explored 357 nodes (4182 simplex iterations) in 0.94 seconds (0.42 work units)
Thread count was 16 (of 16 available processors)

Solution count 2: 830.48 842.39 

Optimal solution found (tolerance 1.00e-04)
Best objective 8.304800000000e+02, best bound 8.304800000000e+02, gap 0.0000%

AMPL MP initial flat model has 691 variables (0 integer, 672 binary);
Objectives: 1 quadratic; 
Constraints:  394 linear; 12 quadratic;
Logical expressions:  378 and;

AMPL MP final model has 1069 variables (0 integer, 1050 binary);
Objectives: 1 quadratic; 
Constraints:  394 linear; 12 quadratic;
Logical expressions:  378 and;


-----RESULTS INFO-----
running_time:  1.016
TC.best_bound:  830.4799999999999
TC:  830.4799999999999
MIP Gap (%):  0
=== Vehicle Routes ===
Vehicle 1: 0 → 2
Vehicle 1: 2 → 0
Vehicle 2: 0 → 1
Vehicle 2: 1 → 13
Vehicle 2: 13 → 0
Vehicle 3: 0 → 4
Vehicle 3: 3 → 0
Vehicle 3: 4 → 15
Vehicle 3: 15 → 3

=== Full Vehicle Routes ===
Vehicle 1: 0 → 2 → 0
Vehicle 2: 0 → 1 → 13 → 0
Vehicle 3: 0 → 4 → 15 → 3 → 0
Arc used by MRT line: y variables:
MRT used: 13 → 14
MRT used: 15 → 16
Customer assigment to PL: u variables:
5 14
6 15
7 14
8 15
9 16
10 14
11 14
12 15
Node is served by regular vehicle: g variables:
1
2
3
4
13
15
Customer assigment to Home delivery: gm variables:
1
2
3
4
Customer's demand delivered to PL: l variables:
5
6
7
8
9
10
11
12
